clasp version 2.1.3
Reading from asp/inst/pb_400_02.lp
Solving...
UNKNOWN

TIME LIMIT  : 1
Models      : 0+    
Time        : 1799.999s (Solving: 1795.03s 1st Model: 0.00s Unsat: 0.00s)
CPU Time    : 1795.860s
Choices     : 8467386
Conflicts   : 1488068
Restarts    : 21     (Average: 70860.38 Last: 997380)

Atoms       : 690201 (Original: 20966 Auxiliary: 669235)
Rules       : 1391490 (1: 31738/1389043 2: 2047/0 3: 400/0)
Bodies      : 1328990
Equivalences: 1399328 (Atom=Atom: 7290 Body=Body: 8800 Other: 1383238)
Tight       : Yes

Variables   : 1314520 (Eliminated:    0 Frozen:    0)
Constraints : 3901933 (Binary: 67.6% Ternary: 32.3% Other:  0.1%)
Lemmas      : 1488068 (Binary:  0.4% Ternary:  0.7% Other: 99.0%)
  Conflict  : 1488068 (Average Length: 1084.5) 
  Loop      : 0      (Average Length: 0.0) 
  Other     : 0      (Average Length: 0.0)
  Deleted   : 1421353
